100 54382

 831 545
787 929
604 957
58 691
951 427
346 613
741 268
474 835
117 577
830 417
791 168
127 842
393 43
908 556
641 285
58 397
634 12
513 607
751 302
802 898
96 253
638 499
118 754
560 35
601 727
488 849
237 90
885 776
897 605
272 922
189 970
999 602
704 418
447 115
581 617
790 903
861 196
247 826
963 501
76 626
154 493
656 75
435 413
997 376
86 420
697 729
285 277
974 761
220 676
69 394
47 869
94 457
750 920
958 192
453 739
204 689
912 99
218 548
474 978
432 999
341 96
551 664
612 663
289 190
254 736
734 37
357 780
23 369
762 695
522 525
758 279
837 217
100 867
802 873
180 798
223 273
906 881
762 62
659 596
442 880
608 729
769 342
325 397
516 699
16 19
792 177
336 612
759 396
258 445
497 233
988 915
896 76
160 265
475 455
852 796
664 718
908 735
690 384
675 564
380 851
